(set-info :smt-lib-version 2.6)
(set-logic QF_LRA)
(set-info :source |
The Formal Verification of a Reintegration Protocol. Author: Lee Pike. Website: http://www.cs.indiana.edu/~lepike/pub_pages/emsoft.html.

This benchmark was automatically translated into SMT-LIB format from
CVC format using CVC Lite
|)
(set-info :category "industrial")
(set-info :status unsat)
(declare-fun x_0 () Real)
(declare-fun x_1 () Bool)
(declare-fun x_2 () Real)
(declare-fun x_3 () Real)
(declare-fun x_4 () Real)
(declare-fun x_5 () Real)
(declare-fun x_6 () Real)
(declare-fun x_7 () Bool)
(declare-fun x_8 () Real)
(declare-fun x_9 () Real)
(declare-fun x_10 () Real)
(declare-fun x_11 () Real)
(declare-fun x_12 () Bool)
(declare-fun x_13 () Real)
(declare-fun x_14 () Real)
(declare-fun x_15 () Real)
(declare-fun x_16 () Bool)
(declare-fun x_17 () Bool)
(declare-fun x_18 () Real)
(declare-fun x_19 () Bool)
(declare-fun x_20 () Bool)
(declare-fun x_21 () Bool)
(declare-fun x_22 () Bool)
(declare-fun x_23 () Bool)
(declare-fun x_24 () Bool)
(declare-fun x_25 () Bool)
(declare-fun x_26 () Real)
(declare-fun x_27 () Bool)
(declare-fun x_28 () Bool)
(declare-fun x_29 () Bool)
(declare-fun x_30 () Bool)
(declare-fun x_31 () Bool)
(declare-fun x_32 () Bool)
(declare-fun x_33 () Bool)
(declare-fun x_34 () Real)
(declare-fun x_35 () Bool)
(declare-fun x_36 () Bool)
(declare-fun x_37 () Bool)
(declare-fun x_38 () Bool)
(declare-fun x_39 () Bool)
(declare-fun x_40 () Bool)
(declare-fun x_41 () Bool)
(declare-fun x_42 () Bool)
(declare-fun x_43 () Real)
(declare-fun x_44 () Real)
(declare-fun x_45 () Real)
(declare-fun x_46 () Real)
(declare-fun x_47 () Bool)
(declare-fun x_48 () Bool)
(declare-fun x_49 () Bool)
(declare-fun x_50 () Bool)
(declare-fun x_51 () Bool)
(declare-fun x_52 () Real)
(declare-fun x_53 () Real)
(declare-fun x_54 () Bool)
(declare-fun x_55 () Bool)
(declare-fun x_56 () Real)
(declare-fun x_57 () Real)
(declare-fun x_58 () Real)
(declare-fun x_59 () Real)
(declare-fun x_60 () Real)
(declare-fun x_61 () Real)
(declare-fun x_62 () Real)
(declare-fun x_63 () Bool)
(declare-fun x_64 () Bool)
(declare-fun x_65 () Bool)
(declare-fun x_66 () Bool)
(declare-fun x_67 () Bool)
(declare-fun x_68 () Bool)
(declare-fun x_69 () Real)
(declare-fun x_70 () Real)
(declare-fun x_71 () Real)
(declare-fun x_72 () Real)
(declare-fun x_73 () Real)
(declare-fun x_74 () Real)
(declare-fun x_75 () Real)
(declare-fun x_76 () Real)
(declare-fun x_77 () Real)
(declare-fun x_78 () Real)
(declare-fun x_79 () Bool)
(declare-fun x_80 () Real)
(declare-fun x_81 () Real)
(declare-fun x_82 () Real)
(declare-fun x_83 () Bool)
(declare-fun x_84 () Real)
(declare-fun x_85 () Real)
(declare-fun x_86 () Real)
(declare-fun x_87 () Real)
(declare-fun x_88 () Bool)
(declare-fun x_89 () Bool)
(declare-fun x_90 () Bool)
(declare-fun x_91 () Real)
(declare-fun x_92 () Real)
(declare-fun x_93 () Real)
(declare-fun x_94 () Real)
(declare-fun x_95 () Real)
(declare-fun x_96 () Real)
(declare-fun x_97 () Bool)
(declare-fun x_98 () Real)
(declare-fun x_99 () Real)
(declare-fun x_100 () Real)
(declare-fun x_101 () Bool)
(declare-fun x_102 () Real)
(declare-fun x_103 () Real)
(declare-fun x_104 () Real)
(declare-fun x_105 () Real)
(declare-fun x_106 () Bool)
(declare-fun x_107 () Bool)
(declare-fun x_108 () Bool)
(declare-fun x_109 () Real)
(declare-fun x_110 () Real)
(declare-fun x_111 () Real)
(declare-fun x_112 () Real)
(declare-fun x_113 () Real)
(declare-fun x_114 () Real)
(declare-fun x_115 () Bool)
(declare-fun x_116 () Real)
(declare-fun x_117 () Real)
(declare-fun x_118 () Real)
(assert (let ((?v_190 (+ x_4 x_2)) (?v_237 (<= x_18 x_8)) (?v_215 (= x_7 x_1)) (?v_162 (= x_6 0)) (?v_177 (< x_18 x_53)) (?v_200 (= x_8 x_18)) (?v_216 (= x_6 2)) (?v_228 (= x_54 x_55)) (?v_229 (and (= x_27 x_19) (= x_28 x_20))) (?v_213 (= x_31 x_23)) (?v_214 (and (= x_29 x_21) (= x_30 x_22))) (?v_230 (= x_56 x_57)) (?v_231 (and (= x_58 x_59) (= x_60 x_61))) (?v_187 (= x_62 x_53)) (?v_212 (= x_24 x_16)) (?v_210 (= x_63 x_64)) (?v_211 (and (= x_65 x_66) (= x_67 x_68))) (?v_232 (= x_25 x_17)) (?v_239 (- x_26 x_4)) (?v_163 (= x_6 1)) (?v_207 (+ x_2 x_4)) (?v_203 (<= x_69 x_8))) (let ((?v_209 (= x_54 (or x_55 (and ?v_203 x_64)))) (?v_193 (<= x_3 ?v_190)) (?v_195 (<= x_5 ?v_190)) (?v_192 (<= x_3 x_2)) (?v_194 (<= x_5 x_2)) (?v_172 (not x_19)) (?v_219 (< x_3 x_18)) (?v_220 (= x_8 x_3)) (?v_173 (not x_20)) (?v_222 (< x_5 x_18)) (?v_223 (= x_8 x_5)) (?v_180 (not x_55)) (?v_240 (not ?v_237)) (?v_197 (not x_66)) (?v_198 (not x_68)) (?v_199 (not x_64))) (let ((?v_188 (not ?v_192))) (let ((?v_201 (and ?v_188 (<= x_3 x_8))) (?v_189 (not ?v_194))) (let ((?v_202 (and ?v_189 (<= x_5 x_8)))) (let ((?v_208 (and (= x_27 (or x_19 (and ?v_201 x_66))) (= x_28 (or x_20 (and ?v_202 x_68))))) (?v_196 (<= x_69 ?v_190)) (?v_225 (< x_69 x_18)) (?v_226 (= x_8 x_69)) (?v_204 (not ?v_193)) (?v_205 (not ?v_195)) (?v_15 (and (not (<= x_69 x_2)) ?v_203)) (?v_16 (and (not (<= x_72 x_2)) (<= x_72 x_8)))) (let ((?v_206 (not ?v_196)) (?v_119 (+ x_4 x_8)) (?v_166 (<= x_26 x_13)) (?v_144 (= x_12 x_7)) (?v_93 (= x_11 0)) (?v_106 (< x_26 x_62)) (?v_129 (= x_13 x_26)) (?v_145 (= x_11 2)) (?v_157 (= x_83 x_54)) (?v_158 (and (= x_35 x_27) (= x_36 x_28))) (?v_142 (= x_39 x_31)) (?v_143 (and (= x_37 x_29) (= x_38 x_30))) (?v_159 (= x_84 x_56)) (?v_160 (and (= x_85 x_58) (= x_86 x_60))) (?v_116 (= x_87 x_62)) (?v_141 (= x_32 x_24)) (?v_139 (= x_88 x_63)) (?v_140 (and (= x_89 x_65) (= x_90 x_67))) (?v_161 (= x_33 x_25)) (?v_168 (- x_34 x_4)) (?v_94 (= x_11 1)) (?v_136 (+ x_8 x_4)) (?v_132 (<= x_80 x_13))) (let ((?v_138 (= x_83 (or x_54 (and ?v_132 x_63)))) (?v_122 (<= x_9 ?v_119)) (?v_124 (<= x_10 ?v_119)) (?v_121 (<= x_9 x_8)) (?v_123 (<= x_10 x_8)) (?v_101 (not x_27)) (?v_148 (< x_9 x_26)) (?v_149 (= x_13 x_9)) (?v_102 (not x_28)) (?v_151 (< x_10 x_26)) (?v_152 (= x_13 x_10)) (?v_109 (not x_54)) (?v_169 (not ?v_166)) (?v_126 (not x_65)) (?v_127 (not x_67)) (?v_128 (not x_63))) (let ((?v_117 (not ?v_121))) (let ((?v_130 (and ?v_117 (<= x_9 x_13))) (?v_118 (not ?v_123))) (let ((?v_131 (and ?v_118 (<= x_10 x_13)))) (let ((?v_137 (and (= x_35 (or x_27 (and ?v_130 x_65))) (= x_36 (or x_28 (and ?v_131 x_67))))) (?v_125 (<= x_80 ?v_119)) (?v_154 (< x_80 x_26)) (?v_155 (= x_13 x_80)) (?v_133 (not ?v_122)) (?v_134 (not ?v_124)) (?v_241 (not (<= x_80 x_8)))) (let ((?v_21 (and ?v_241 ?v_132)) (?v_242 (not (<= x_81 x_8)))) (let ((?v_22 (and ?v_242 (<= x_81 x_13))) (?v_135 (not ?v_125)) (?v_52 (+ x_4 x_13)) (?v_97 (<= x_34 x_52)) (?v_76 (= x_40 x_12)) (?v_32 (= x_43 0)) (?v_38 (< x_34 x_87)) (?v_61 (= x_52 x_34)) (?v_77 (= x_43 2)) (?v_88 (= x_101 x_83)) (?v_89 (and (= x_47 x_35) (= x_48 x_36))) (?v_74 (= x_51 x_39)) (?v_75 (and (= x_49 x_37) (= x_50 x_38))) (?v_90 (= x_102 x_84)) (?v_91 (and (= x_103 x_85) (= x_104 x_86))) (?v_48 (= x_105 x_87)) (?v_73 (= x_41 x_32)) (?v_71 (= x_106 x_88)) (?v_72 (and (= x_107 x_89) (= x_108 x_90))) (?v_92 (= x_42 x_33)) (?v_99 (- x_44 x_4)) (?v_49 (= x_43 1)) (?v_68 (+ x_13 x_4)) (?v_64 (<= x_98 x_52))) (let ((?v_70 (= x_101 (or x_83 (and ?v_64 x_88)))) (?v_54 (<= x_14 ?v_52)) (?v_56 (<= x_15 ?v_52)) (?v_53 (<= x_14 x_13)) (?v_55 (<= x_15 x_13)) (?v_33 (not x_35)) (?v_79 (< x_14 x_34)) (?v_80 (= x_52 x_14)) (?v_34 (not x_36)) (?v_82 (< x_15 x_34)) (?v_83 (= x_52 x_15)) (?v_41 (not x_83)) (?v_100 (not ?v_97)) (?v_58 (not x_89)) (?v_59 (not x_90)) (?v_60 (not x_88))) (let ((?v_50 (not ?v_53))) (let ((?v_62 (and ?v_50 (<= x_14 x_52))) (?v_51 (not ?v_55))) (let ((?v_63 (and ?v_51 (<= x_15 x_52)))) (let ((?v_69 (and (= x_47 (or x_35 (and ?v_62 x_89))) (= x_48 (or x_36 (and ?v_63 x_90))))) (?v_57 (<= x_98 ?v_52)) (?v_85 (< x_98 x_34)) (?v_86 (= x_52 x_98)) (?v_65 (not ?v_54)) (?v_66 (not ?v_56)) (?v_170 (not (<= x_98 x_13)))) (let ((?v_27 (and ?v_170 ?v_64)) (?v_171 (not (<= x_99 x_13)))) (let ((?v_28 (and ?v_171 (<= x_99 x_52))) (?v_67 (not ?v_57)) (?v_186 (= x_56 0)) (?v_176 (= x_56 3)) (?v_182 (= x_58 0)) (?v_174 (= x_58 3)) (?v_184 (= x_60 0)) (?v_175 (= x_60 3)) (?v_115 (= x_84 0)) (?v_105 (= x_84 3)) (?v_111 (= x_85 0)) (?v_103 (= x_85 3)) (?v_113 (= x_86 0)) (?v_104 (= x_86 3)) (?v_47 (= x_102 0)) (?v_37 (= x_102 3)) (?v_43 (= x_103 0)) (?v_35 (= x_103 3)) (?v_45 (= x_104 0)) (?v_36 (= x_104 3)) (?v_2 (not ?v_145)) (?v_146 (not x_12)) (?v_4 (< x_13 x_14)) (?v_5 (< x_13 x_15)) (?v_6 (not ?v_216)) (?v_217 (not x_7)) (?v_8 (< x_8 x_9)) (?v_9 (< x_8 x_10)) (?v_10 (not (= x_0 2))) (?v_12 (< x_2 x_3)) (?v_13 (< x_2 x_5)) (?v_0 (not ?v_49)) (?v_1 (not ?v_77)) (?v_96 (not (<= x_44 x_45))) (?v_98 (not (<= x_44 x_46))) (?v_243 (< x_52 x_45)) (?v_244 (< x_52 x_46)) (?v_95 (not ?v_93)) (?v_3 (not ?v_94)) (?v_165 (not (<= x_34 x_14))) (?v_167 (not (<= x_34 x_15))) (?v_78 (not x_37)) (?v_81 (not x_38)) (?v_84 (not x_39)) (?v_164 (not ?v_162)) (?v_7 (not ?v_163)) (?v_236 (not (<= x_26 x_9))) (?v_238 (not (<= x_26 x_10))) (?v_147 (not x_29)) (?v_150 (not x_30)) (?v_153 (not x_31)) (?v_233 (= x_0 0))) (let ((?v_235 (not ?v_233)) (?v_234 (= x_0 1))) (let ((?v_11 (not ?v_234)) (?v_218 (not x_21)) (?v_221 (not x_22)) (?v_224 (not x_23)) (?v_17 (and (not (<= x_75 x_2)) (<= x_75 x_8))) (?v_23 (and (not (<= x_82 x_8)) (<= x_82 x_13))) (?v_29 (and (not (<= x_100 x_13)) (<= x_100 x_52))) (?v_39 (= x_103 (ite ?v_33 (ite (and ?v_62 (< x_85 3)) (+ x_85 1) x_85) x_85))) (?v_40 (= x_104 (ite ?v_34 (ite (and ?v_63 (< x_86 3)) (+ x_86 1) x_86) x_86))) (?v_42 (or x_35 ?v_35)) (?v_44 (or x_36 ?v_36)) (?v_46 (or x_83 ?v_37)) (?v_120 (not x_33)) (?v_107 (= x_85 (ite ?v_101 (ite (and ?v_130 (< x_58 3)) (+ x_58 1) x_58) x_58))) (?v_108 (= x_86 (ite ?v_102 (ite (and ?v_131 (< x_60 3)) (+ x_60 1) x_60) x_60))) (?v_110 (or x_27 ?v_103)) (?v_112 (or x_28 ?v_104)) (?v_114 (or x_54 ?v_105)) (?v_191 (not x_25)) (?v_178 (= x_58 (ite ?v_172 (ite (and ?v_201 (< x_59 3)) (+ x_59 1) x_59) x_59))) (?v_179 (= x_60 (ite ?v_173 (ite (and ?v_202 (< x_61 3)) (+ x_61 1) x_61) x_61))) (?v_181 (or x_19 ?v_174)) (?v_183 (or x_20 ?v_175)) (?v_185 (or x_55 ?v_176)) (?v_14 (ite ?v_15 2 1)) (?v_18 (ite ?v_15 3 2)) (?v_19 (ite ?v_15 1 0)) (?v_20 (ite ?v_21 2 1)) (?v_24 (ite ?v_21 3 2)) (?v_25 (ite ?v_21 1 0)) (?v_26 (ite ?v_27 2 1)) (?v_30 (ite ?v_27 3 2)) (?v_31 (ite ?v_27 1 0)) (?v_87 (<= (ite x_39 (ite x_38 (ite x_37 3 2) x_109) (ite x_38 x_109 (ite x_37 1 0))) (* (* (ite x_83 (ite x_36 (ite x_35 0 1) x_110) (ite x_36 x_110 (ite x_35 2 3))) 1) (/ 1 2)))) (?v_156 (<= (ite x_31 (ite x_30 (ite x_29 3 2) x_91) (ite x_30 x_91 (ite x_29 1 0))) (* (* (ite x_54 (ite x_28 (ite x_27 0 1) x_92) (ite x_28 x_92 (ite x_27 2 3))) 1) (/ 1 2)))) (?v_227 (<= (ite x_23 (ite x_22 (ite x_21 3 2) x_70) (ite x_22 x_70 (ite x_21 1 0))) (* (* (ite x_55 (ite x_20 (ite x_19 0 1) x_71) (ite x_20 x_71 (ite x_19 2 3))) 1) (/ 1 2))))) (and (and (and (and (and (and (and (and (and (and (and (and (and (and (and (and (and (and (and (and (and (and (and (and (and (and (and (and (and (and (and (and (and (and (and (and (and (and (and (and (and (and (and (and (and (and (and (and (and (and (and (and (and (and (and (and (and (and (and (and (and (and (and (and (and (and (and (and (and (and (and (and (and (and (and (and (and (and (and (and (and (and (and (and (and (and (and (and (and (and (and (and (and (and (and (and (and (and (and (and (and (and (and (and (and (and (and (and (and (and (and (and (and (and (and (and (and (and (and (and (and (and (and (and (and (and (and (and (and (and (and (and (and (and (and (and (and (and (and (and (and (and (and (and (and (and (and (and (and (and (and (and (and (and (and (and (and (and (and (and (and (and (and (and (and (<= x_43 2) (>= x_43 0)) (<= x_11 2)) (>= x_11 0)) (<= x_6 2)) (>= x_6 0)) (<= x_0 2)) (>= x_0 0)) (>= x_2 0)) (>= x_3 0)) (> x_4 0)) (>= x_4 0)) (>= x_5 0)) (>= x_8 0)) (>= x_9 0)) (>= x_10 0)) (>= x_13 0)) (>= x_14 0)) (>= x_15 0)) (>= x_18 0)) (>= x_26 0)) (>= x_34 0)) (>= x_44 0)) (>= x_45 0)) (>= x_46 0)) (>= x_52 0)) (>= x_53 0)) (or (or (or ?v_186 (= x_56 1)) (= x_56 2)) ?v_176)) (not (< x_56 0))) (<= x_56 3)) (or (or (or (= x_57 0) (= x_57 1)) (= x_57 2)) (= x_57 3))) (not (< x_57 0))) (<= x_57 3)) (or (or (or ?v_182 (= x_58 1)) (= x_58 2)) ?v_174)) (not (< x_58 0))) (<= x_58 3)) (or (or (or (= x_59 0) (= x_59 1)) (= x_59 2)) (= x_59 3))) (not (< x_59 0))) (<= x_59 3)) (or (or (or ?v_184 (= x_60 1)) (= x_60 2)) ?v_175)) (not (< x_60 0))) (<= x_60 3)) (or (or (or (= x_61 0) (= x_61 1)) (= x_61 2)) (= x_61 3))) (not (< x_61 0))) (<= x_61 3)) (>= x_62 0)) (>= x_69 0)) (>= x_72 0)) (>= x_75 0)) (not (<= x_78 (* x_4 3)))) (>= x_78 0)) (>= x_80 0)) (>= x_81 0)) (>= x_82 0)) (or (or (or ?v_115 (= x_84 1)) (= x_84 2)) ?v_105)) (not (< x_84 0))) (<= x_84 3)) (or (or (or ?v_111 (= x_85 1)) (= x_85 2)) ?v_103)) (not (< x_85 0))) (<= x_85 3)) (or (or (or ?v_113 (= x_86 1)) (= x_86 2)) ?v_104)) (not (< x_86 0))) (<= x_86 3)) (>= x_87 0)) (>= x_98 0)) (>= x_99 0)) (>= x_100 0)) (or (or (or ?v_47 (= x_102 1)) (= x_102 2)) ?v_37)) (not (< x_102 0))) (<= x_102 3)) (or (or (or ?v_43 (= x_103 1)) (= x_103 2)) ?v_35)) (not (< x_103 0))) (<= x_103 3)) (or (or (or ?v_45 (= x_104 1)) (= x_104 2)) ?v_36)) (not (< x_104 0))) (<= x_104 3)) (>= x_105 0)) (>= x_116 0)) (>= x_117 0)) (>= x_118 0)) (or (or ?v_2 ?v_146) (and (ite (not ?v_4) (< (- x_13 x_14) x_4) (< (- x_14 x_13) x_4)) (ite (not ?v_5) (< (- x_13 x_15) x_4) (< (- x_15 x_13) x_4))))) (or (or ?v_6 ?v_217) (and (ite (not ?v_8) (< (- x_8 x_9) x_4) (< (- x_9 x_8) x_4)) (ite (not ?v_9) (< (- x_8 x_10) x_4) (< (- x_10 x_8) x_4))))) (or (or ?v_10 (not x_1)) (and (ite (not ?v_12) (< (- x_2 x_3) x_4) (< (- x_3 x_2) x_4)) (ite (not ?v_13) (< (- x_2 x_5) x_4) (< (- x_5 x_2) x_4))))) (or (not ?v_32) (and x_42 x_40))) (or ?v_0 (and x_41 x_40))) (or ?v_1 (and x_41 x_42))) ?v_96) ?v_98) (< (- x_44 x_45) x_4)) (< (- x_44 x_46) x_4)) (not x_47)) (not x_48)) (or ?v_0 (and (and (not x_49) (not x_50)) (not x_51)))) (or ?v_1 (and (or x_49 ?v_243) (or x_50 ?v_244)))) (or ?v_95 (and x_33 x_12))) (or ?v_3 (and x_32 x_12))) (or ?v_2 (and x_32 x_33))) ?v_165) ?v_167) (< (- x_34 x_14) x_4)) (< (- x_34 x_15) x_4)) ?v_33) ?v_34) (or ?v_3 (and (and ?v_78 ?v_81) ?v_84))) (or ?v_2 (and (or x_37 ?v_4) (or x_38 ?v_5)))) (or ?v_164 (and x_25 x_7))) (or ?v_7 (and x_24 x_7))) (or ?v_6 (and x_24 x_25))) ?v_236) ?v_238) (< (- x_26 x_9) x_4)) (< (- x_26 x_10) x_4)) ?v_101) ?v_102) (or ?v_7 (and (and ?v_147 ?v_150) ?v_153))) (or ?v_6 (and (or x_29 ?v_8) (or x_30 ?v_9)))) (or ?v_235 (and x_17 x_1))) (or ?v_11 (and x_16 x_1))) (or ?v_10 (and x_16 x_17))) (not (<= x_18 x_3))) (not (<= x_18 x_5))) (< (- x_18 x_3) x_4)) (< (- x_18 x_5) x_4)) ?v_172) ?v_173) (or ?v_11 (and (and ?v_218 ?v_221) ?v_224))) (or ?v_10 (and (or x_21 ?v_12) (or x_22 ?v_13)))) (= x_70 (ite x_21 2 1))) (= x_71 (ite x_19 1 2))) (= x_73 ?v_14)) (= x_74 ?v_14)) (= x_76 (+ (ite ?v_17 (ite ?v_16 ?v_18 x_73) (ite ?v_16 x_73 ?v_19)) x_57))) (= x_77 (+ (ite ?v_17 (ite ?v_16 ?v_18 x_74) (ite ?v_16 x_74 ?v_19)) x_57))) (= x_91 (ite x_29 2 1))) (= x_92 (ite x_27 1 2))) (= x_93 ?v_20)) (= x_94 ?v_20)) (= x_95 (+ (ite ?v_23 (ite ?v_22 ?v_24 x_93) (ite ?v_22 x_93 ?v_25)) x_56))) (= x_96 (+ (ite ?v_23 (ite ?v_22 ?v_24 x_94) (ite ?v_22 x_94 ?v_25)) x_56))) (= x_109 (ite x_37 2 1))) (= x_110 (ite x_35 1 2))) (= x_111 ?v_26)) (= x_112 ?v_26)) (= x_113 (+ (ite ?v_29 (ite ?v_28 ?v_30 x_111) (ite ?v_28 x_111 ?v_31)) x_84))) (= x_114 (+ (ite ?v_29 (ite ?v_28 ?v_30 x_112) (ite ?v_28 x_112 ?v_31)) x_84))) (or (or (and (and (and (and (and (and (or (and (and (and (and (and (and (and (and (and (and ?v_32 ?v_38) ?v_61) ?v_39) ?v_40) (= x_102 (ite ?v_41 (ite (not (< x_113 3)) 3 x_113) x_84))) (= x_47 ?v_42)) (= x_48 ?v_44)) (= x_101 ?v_46)) ?v_73) ?v_48) (and (and (and (and (and (and (and (and (and (and ?v_32 (not ?v_38)) x_41) (= x_52 x_87)) ?v_39) ?v_40) (= x_102 (ite ?v_41 (ite (not (< x_114 3)) 3 x_114) x_84))) (= x_47 (or ?v_42 ?v_43))) (= x_48 (or ?v_44 ?v_45))) (= x_101 (or ?v_46 ?v_47))) ?v_48)) ?v_71) ?v_72) ?v_92) ?v_74) ?v_75) ?v_76) (and (and (and (and (and (and (and (or (and (and (and (and (and (and (and (and (and (and (and ?v_49 (or (or (and (and (and ?v_50 ?v_33) ?v_58) ?v_54) (and (and (and ?v_51 ?v_34) ?v_59) ?v_56)) (and (and ?v_41 ?v_60) ?v_57))) (not x_42)) (or (or (or (or ?v_53 ?v_65) x_89) x_35) (not (< x_52 x_14)))) (or (or (or (or ?v_55 ?v_66) x_90) x_36) (not (< x_52 x_15)))) (or (or (or ?v_67 x_88) x_83) (not (< x_52 x_98)))) (or (or (or (and (and (and (and ?v_58 ?v_33) ?v_54) ?v_79) ?v_80) (and (and (and (and ?v_59 ?v_34) ?v_56) ?v_82) ?v_83)) (and (and (and (and ?v_60 ?v_41) ?v_57) ?v_85) ?v_86)) (and (< x_34 ?v_68) ?v_61))) (= x_107 (or x_89 ?v_62))) (= x_108 (or x_90 ?v_63))) (= x_106 (or x_88 ?v_64))) ?v_69) ?v_70) (and (and (and (and (and (and (and (and (and ?v_49 (or (or (or ?v_53 x_89) x_35) ?v_65)) (or (or (or ?v_55 x_90) x_36) ?v_66)) (or (or x_88 x_83) ?v_67)) x_42) (= x_52 ?v_68)) ?v_69) ?v_70) ?v_71) ?v_72)) ?v_90) ?v_91) ?v_48) ?v_73) ?v_74) ?v_75) ?v_76)) (and (and (and (and (and (and (and (or (and (and (and (and (and (and (and (and (and (and (and ?v_77 ?v_87) (not x_40)) (or (or (or ?v_53 x_37) x_35) (<= x_52 x_14))) (or (or (or ?v_55 x_38) x_36) (<= x_52 x_15))) (or (or x_39 x_83) (<= x_52 x_98))) (or (or (or (and (and (and (and ?v_78 ?v_33) ?v_4) ?v_79) ?v_80) (and (and (and (and ?v_81 ?v_34) ?v_5) ?v_82) ?v_83)) (and (and (and ?v_84 ?v_41) ?v_85) ?v_86)) ?v_61)) (= x_49 (or x_37 (= x_14 x_52)))) (= x_50 (or x_38 (= x_15 x_52)))) (= x_51 (or x_39 (= x_98 x_52)))) ?v_88) ?v_89) (and (and (and (and (and (and (and ?v_77 (not ?v_87)) x_40) ?v_88) ?v_89) (= x_52 x_13)) ?v_74) ?v_75)) ?v_90) ?v_91) ?v_48) ?v_73) ?v_71) ?v_72) ?v_92))) (or (or (and ?v_93 (= x_43 (ite (not x_32) x_11 1))) (and ?v_94 (= x_43 (ite ?v_120 x_11 2)))) (and (and ?v_95 ?v_3) (= x_43 x_11)))) (or (and (and ?v_97 ?v_96) (not (<= x_45 ?v_99))) (and ?v_100 (= x_45 x_14)))) (or (and (and ?v_97 ?v_98) (not (<= x_46 ?v_99))) (and ?v_100 (= x_46 x_15)))) (or (and (and ?v_97 (= x_44 (+ x_34 x_78))) x_115) (and (and ?v_100 (not x_115)) (= x_44 x_34)))) (or (and (and (and (and ?v_64 (not (<= x_116 x_52))) (not (<= x_117 x_52))) (< x_116 x_117)) (< x_117 x_118)) (and (and (and (not ?v_64) (= x_116 x_98)) (= x_117 x_99)) (= x_118 x_100)))) (or (or (and (and (and (and (and (and (or (and (and (and (and (and (and (and (and (and (and ?v_93 ?v_106) ?v_129) ?v_107) ?v_108) (= x_84 (ite ?v_109 (ite (not (< x_95 3)) 3 x_95) x_56))) (= x_35 ?v_110)) (= x_36 ?v_112)) (= x_83 ?v_114)) ?v_141) ?v_116) (and (and (and (and (and (and (and (and (and (and ?v_93 (not ?v_106)) x_32) (= x_13 x_62)) ?v_107) ?v_108) (= x_84 (ite ?v_109 (ite (not (< x_96 3)) 3 x_96) x_56))) (= x_35 (or ?v_110 ?v_111))) (= x_36 (or ?v_112 ?v_113))) (= x_83 (or ?v_114 ?v_115))) ?v_116)) ?v_139) ?v_140) ?v_161) ?v_142) ?v_143) ?v_144) (and (and (and (and (and (and (and (or (and (and (and (and (and (and (and (and (and (and (and ?v_94 (or (or (and (and (and ?v_117 ?v_101) ?v_126) ?v_122) (and (and (and ?v_118 ?v_102) ?v_127) ?v_124)) (and (and ?v_109 ?v_128) ?v_125))) ?v_120) (or (or (or (or ?v_121 ?v_133) x_65) x_27) (not (< x_13 x_9)))) (or (or (or (or ?v_123 ?v_134) x_67) x_28) (not (< x_13 x_10)))) (or (or (or ?v_135 x_63) x_54) (not (< x_13 x_80)))) (or (or (or (and (and (and (and ?v_126 ?v_101) ?v_122) ?v_148) ?v_149) (and (and (and (and ?v_127 ?v_102) ?v_124) ?v_151) ?v_152)) (and (and (and (and ?v_128 ?v_109) ?v_125) ?v_154) ?v_155)) (and (< x_26 ?v_136) ?v_129))) (= x_89 (or x_65 ?v_130))) (= x_90 (or x_67 ?v_131))) (= x_88 (or x_63 ?v_132))) ?v_137) ?v_138) (and (and (and (and (and (and (and (and (and ?v_94 (or (or (or ?v_121 x_65) x_27) ?v_133)) (or (or (or ?v_123 x_67) x_28) ?v_134)) (or (or x_63 x_54) ?v_135)) x_33) (= x_13 ?v_136)) ?v_137) ?v_138) ?v_139) ?v_140)) ?v_159) ?v_160) ?v_116) ?v_141) ?v_142) ?v_143) ?v_144)) (and (and (and (and (and (and (and (or (and (and (and (and (and (and (and (and (and (and (and ?v_145 ?v_156) ?v_146) (or (or (or ?v_121 x_29) x_27) (<= x_13 x_9))) (or (or (or ?v_123 x_30) x_28) (<= x_13 x_10))) (or (or x_31 x_54) (<= x_13 x_80))) (or (or (or (and (and (and (and ?v_147 ?v_101) ?v_8) ?v_148) ?v_149) (and (and (and (and ?v_150 ?v_102) ?v_9) ?v_151) ?v_152)) (and (and (and ?v_153 ?v_109) ?v_154) ?v_155)) ?v_129)) (= x_37 (or x_29 (= x_9 x_13)))) (= x_38 (or x_30 (= x_10 x_13)))) (= x_39 (or x_31 (= x_80 x_13)))) ?v_157) ?v_158) (and (and (and (and (and (and (and ?v_145 (not ?v_156)) x_12) ?v_157) ?v_158) (= x_13 x_8)) ?v_142) ?v_143)) ?v_159) ?v_160) ?v_116) ?v_141) ?v_139) ?v_140) ?v_161))) (or (or (and ?v_162 (= x_11 (ite (not x_24) x_6 1))) (and ?v_163 (= x_11 (ite ?v_191 x_6 2)))) (and (and ?v_164 ?v_7) (= x_11 x_6)))) (or (and (and ?v_166 ?v_165) (not (<= x_14 ?v_168))) (and ?v_169 (= x_14 x_9)))) (or (and (and ?v_166 ?v_167) (not (<= x_15 ?v_168))) (and ?v_169 (= x_15 x_10)))) (or (and (and ?v_166 (= x_34 (+ x_26 x_78))) x_97) (and (and ?v_169 (not x_97)) (= x_34 x_26)))) (or (and (and (and (and ?v_132 ?v_170) ?v_171) (< x_98 x_99)) (< x_99 x_100)) (and (and (and (not ?v_132) (= x_98 x_80)) (= x_99 x_81)) (= x_100 x_82)))) (or (or (and (and (and (and (and (and (or (and (and (and (and (and (and (and (and (and (and ?v_162 ?v_177) ?v_200) ?v_178) ?v_179) (= x_56 (ite ?v_180 (ite (not (< x_76 3)) 3 x_76) x_57))) (= x_27 ?v_181)) (= x_28 ?v_183)) (= x_54 ?v_185)) ?v_212) ?v_187) (and (and (and (and (and (and (and (and (and (and ?v_162 (not ?v_177)) x_24) (= x_8 x_53)) ?v_178) ?v_179) (= x_56 (ite ?v_180 (ite (not (< x_77 3)) 3 x_77) x_57))) (= x_27 (or ?v_181 ?v_182))) (= x_28 (or ?v_183 ?v_184))) (= x_54 (or ?v_185 ?v_186))) ?v_187)) ?v_210) ?v_211) ?v_232) ?v_213) ?v_214) ?v_215) (and (and (and (and (and (and (and (or (and (and (and (and (and (and (and (and (and (and (and ?v_163 (or (or (and (and (and ?v_188 ?v_172) ?v_197) ?v_193) (and (and (and ?v_189 ?v_173) ?v_198) ?v_195)) (and (and ?v_180 ?v_199) ?v_196))) ?v_191) (or (or (or (or ?v_192 ?v_204) x_66) x_19) (not (< x_8 x_3)))) (or (or (or (or ?v_194 ?v_205) x_68) x_20) (not (< x_8 x_5)))) (or (or (or ?v_206 x_64) x_55) (not (< x_8 x_69)))) (or (or (or (and (and (and (and ?v_197 ?v_172) ?v_193) ?v_219) ?v_220) (and (and (and (and ?v_198 ?v_173) ?v_195) ?v_222) ?v_223)) (and (and (and (and ?v_199 ?v_180) ?v_196) ?v_225) ?v_226)) (and (< x_18 ?v_207) ?v_200))) (= x_65 (or x_66 ?v_201))) (= x_67 (or x_68 ?v_202))) (= x_63 (or x_64 ?v_203))) ?v_208) ?v_209) (and (and (and (and (and (and (and (and (and ?v_163 (or (or (or ?v_192 x_66) x_19) ?v_204)) (or (or (or ?v_194 x_68) x_20) ?v_205)) (or (or x_64 x_55) ?v_206)) x_25) (= x_8 ?v_207)) ?v_208) ?v_209) ?v_210) ?v_211)) ?v_230) ?v_231) ?v_187) ?v_212) ?v_213) ?v_214) ?v_215)) (and (and (and (and (and (and (and (or (and (and (and (and (and (and (and (and (and (and (and ?v_216 ?v_227) ?v_217) (or (or (or ?v_192 x_21) x_19) (<= x_8 x_3))) (or (or (or ?v_194 x_22) x_20) (<= x_8 x_5))) (or (or x_23 x_55) (<= x_8 x_69))) (or (or (or (and (and (and (and ?v_218 ?v_172) ?v_12) ?v_219) ?v_220) (and (and (and (and ?v_221 ?v_173) ?v_13) ?v_222) ?v_223)) (and (and (and ?v_224 ?v_180) ?v_225) ?v_226)) ?v_200)) (= x_29 (or x_21 (= x_3 x_8)))) (= x_30 (or x_22 (= x_5 x_8)))) (= x_31 (or x_23 (= x_69 x_8)))) ?v_228) ?v_229) (and (and (and (and (and (and (and ?v_216 (not ?v_227)) x_7) ?v_228) ?v_229) (= x_8 x_2)) ?v_213) ?v_214)) ?v_230) ?v_231) ?v_187) ?v_212) ?v_210) ?v_211) ?v_232))) (or (or (and ?v_233 (= x_6 (ite (not x_16) x_0 1))) (and ?v_234 (= x_6 (ite (not x_17) x_0 2)))) (and (and ?v_235 ?v_11) (= x_6 x_0)))) (or (and (and ?v_237 ?v_236) (not (<= x_9 ?v_239))) (and ?v_240 (= x_9 x_3)))) (or (and (and ?v_237 ?v_238) (not (<= x_10 ?v_239))) (and ?v_240 (= x_10 x_5)))) (or (and (and ?v_237 (= x_26 (+ x_18 x_78))) x_79) (and (and ?v_240 (not x_79)) (= x_26 x_18)))) (or (and (and (and (and ?v_203 ?v_241) ?v_242) (< x_80 x_81)) (< x_81 x_82)) (and (and (and (not ?v_203) (= x_80 x_69)) (= x_81 x_72)) (= x_82 x_75)))) ?v_77) x_40) (or (not (ite (not ?v_243) (< (- x_52 x_45) x_4) (< (- x_45 x_52) x_4))) (not (ite (not ?v_244) (< (- x_52 x_46) x_4) (< (- x_46 x_52) x_4)))))))))))))))))))))))))))))
(check-sat)
(exit)
